interdiction/MCDM/NO_CORR/GEN_FROM_60/12_ITEMS_1000_GEN/K5012W06.KNP.mps
NAME          BLANK   
ROWS
 N  OBJROW
 L  R0000000
COLUMNS
    C0000000  OBJROW     -225.         R0000000  485.        
    C0000001  OBJROW     -58.          R0000000  652.        
    C0000002  OBJROW     -37.          R0000000  49.         
    C0000003  OBJROW     -177.         R0000000  985.        
    C0000004  OBJROW     -712.         R0000000  130.        
    C0000005  OBJROW     -18.          R0000000  512.        
    C0000006  OBJROW     -171.         R0000000  391.        
    C0000007  OBJROW     -732.         R0000000  471.        
    C0000008  OBJROW     -581.         R0000000  44.         
    C0000009  OBJROW     -926.         R0000000  751.        
    C0000010  OBJROW     -846.         R0000000  786.        
    C0000011  OBJROW     -850.         R0000000  402.        
RHS
    RHS       R0000000  14444.      
BOUNDS
 BV BOUND     C0000000  1.          
 BV BOUND     C0000001  1.          
 BV BOUND     C0000002  1.          
 BV BOUND     C0000003  1.          
 BV BOUND     C0000004  1.          
 BV BOUND     C0000005  1.          
 BV BOUND     C0000006  1.          
 BV BOUND     C0000007  1.          
 BV BOUND     C0000008  1.          
 BV BOUND     C0000009  1.          
 BV BOUND     C0000010  1.          
 BV BOUND     C0000011  1.          
ENDATA
