data/MCDM/NO_CORR/GEN_FROM_60/12_ITEMS_1000_GEN/K5012W06.KNP.txt
N 12
M 13
LC 12
LC 13
LC 14
LC 15
LC 16
LC 17
LC 18
LC 19
LC 20
LC 21
LC 22
LC 23
LR 1
LR 2
LR 3
LR 4
LR 5
LR 6
LR 7
LR 8
LR 9
LR 10
LR 11
LR 12
LR 13
LO -225
LO -58
LO -37
LO -177
LO -712
LO -18
LO -171
LO -732
LO -581
LO -926
LO -846
LO -850
OS 1
IC 952
IC 2
IC 934
IC 421
IC 152
IC 478
IC 874
IC 458
IC 969
IC 912
IC 16
IC 965
IB 3567
